StudentsNr = 10;
InstructorsNr = 55;
DaysNr = 2;
SlotsPerDay = 10;
AvailabilitySlotsLenght = 10;
RoomNr = 1;
ProgrammNr = 2;
DegreeNr = 3;
RolesNr = 3;
CoursesNr = 6;
InstructorsProgramm = [{1}, {2}, {1}, {1}, {1, 2}, {1, 2}, {1}, {2}, {1, 2}, {1}, {2}, {2}, {1, 2}, {1}, {1, 2}, {1}, {1, 2}, {1}, {1, 2}, {1}, {2}, {1, 2}, {1}, {2}, {1}, {2}, {1}, {1}, {1}, {2}, {1}, {1}, {2}, {1}, {1, 2}, {1}, {1, 2}, {1}, {2}, {1, 2}, {1, 2}, {2}, {2}, {1, 2}, {2}, {1}, {2}, {1}, {2}, {1}, {2}, {2}, {1}, {2}, {2}];
InstructorRolesPerProgramm = [|{5, 9, 13, 16, 22, 25, 29, 31, 34, 35, 37, 38, 41, 48}, {1, 3, 13, 14, 17, 18, 19, 23, 27, 29, 32, 38, 50, 53}, {4, 6, 10, 14, 15, 23, 27, 28, 29, 32, 34, 37, 44, 50, 53}|{5, 9, 12, 13, 22, 24, 26, 35, 37, 39, 41}, {8, 11, 13, 17, 19, 30, 45, 52}, {2, 6, 8, 11, 15, 26, 30, 37, 44, 49}|];
InstructorsAvailability = [|0, 1, |1, 0, |1, 1, |1, 1, |0, 1, |0, 0, |1, 1, |0, 1, |1, 1, |0, 0, |0, 1, |1, 1, |0, 0, |0, 0, |0, 0, |1, 1, |0, 1, |1, 1, |1, 1, |1, 1, |0, 1, |1, 1, |1, 0, |0, 0, |1, 1, |1, 1, |0, 1, |1, 1, |1, 1, |1, 1, |0, 0, |1, 0, |0, 1, |1, 0, |0, 0, |1, 1, |1, 1, |0, 0, |1, 1, |0, 1, |1, 1, |0, 0, |0, 1, |1, 0, |1, 1, |0, 0, |1, 1, |1, 1, |0, 1, |1, 0, |0, 0, |1, 1, |0, 0, |1, 1, |1, 1|];
StudentsProgramm = [1, 1, 1, 1, 2, 1, 1, 2, 2, 2];
StudentsDegree = [3, 2, 3, 1, 2, 2, 2, 1, 3, 2];
StudentsSupervisorId = [41, 53, 40, 4, 26, 46, 25, 8, 8, 19];
StudentsCourseIds = [{1, 2, 3, 4, 5, 6}, {4, 6}, {1, 2, 3, 4, 5, 6}, {}, {1, 2}, {4, 5}, {4, 5}, {}, {1, 2, 3, 4, 5, 6}, {1, 2}];
StudentsAvailability = [|0, 0, |0, 1, |1, 1, |1, 1, |1, 1, |1, 1, |1, 1, |0, 0, |0, 1, |1, 1|];
TheoryticalMinCard = [0, 0, 0, 0, 0, 1, 0, 0, 1, 0];
CoursesInstructorIds = [{14, 32, 35, 38, 51}, {2, 5, 12, 15, 16, 20, 22, 25, 27, 36, 37, 41, 46, 47}, {3, 4, 5, 6, 8, 12, 14, 15, 16, 18, 19, 21, 22, 23, 24, 25, 26, 27, 28, 30, 32, 34, 35, 38, 40, 42, 43, 44, 45, 48, 52, 53, 55}, {29}, {1, 3, 7, 9, 10, 11, 12, 14, 15, 17, 23, 28, 29, 33, 35, 36, 38, 42, 44, 45, 48, 51, 52}, {2, 3, 6, 7, 11, 13, 18, 19, 20, 21, 23, 27, 29, 31, 34, 35, 36, 39, 40, 41, 46, 47, 50, 52, 53}];
RolesDemands = [6, 1, 1];
RolesContinuity = [1];
ExamLen = [2, 1, 2, 1, 1, 1, 1, 1, 2, 1];
LunchTsMinLen = 0;
LunchStarts = [3..7, 12..17];
SupervisorAvailable = 0;
OptimalLunchLenght = [2, 0];
OptimalStartTs = [0, 0];
OptimalFinishTs = [1, 10];
MinimizeRooms = 500;
RolesSoftContinuity = [|1, 2, 3|0, 3, 2|];
SameDegreeInRoom = 20;
Mergeability = 0;
